(set-logic HORN)
(declare-fun inv ((_ BitVec 32) (_ BitVec 32) (_ BitVec 32) ) Bool)
(assert (forall ((x (_ BitVec 32)) (m (_ BitVec 32)) (n (_ BitVec 32))) 
       (=> ( and ( = x (_ bv0 32) ) ( = m (_ bv0 32) ) ) (inv x m n))))
(assert (forall ((x (_ BitVec 32)) (m (_ BitVec 32)) (n (_ BitVec 32)) (x! (_ BitVec 32)) (m! (_ BitVec 32)) (n! (_ BitVec 32))) 
       (=> (and (inv x m n) ( and ( bvult x n ) ( or ( = m! x ) ( = m! m ) ) ( = n! n ) ( = x! ( bvadd x (_ bv1 32) ) ) )) (inv x! m! n!))))
(assert (forall ((x (_ BitVec 32)) (m (_ BitVec 32)) (n (_ BitVec 32))) 
       (=> (inv x m n) ( and ( or ( bvuge m (_ bv0 32) ) ( bvule n (_ bv0 32) ) ) ( or ( bvult m n ) ( bvule n (_ bv0 32) ) ) ))))
(check-sat)
